VACCINE = Vaccine(1..3);
m = 24;
age = [SENIOR, BABY, YOUTH, CHILD, BABY, BABY, CHILD, ANCIENT, ANCIENT, CHILD, YOUTH, BABY, ANCIENT, AGED, SENIOR, ANCIENT, SENIOR, CHILD, YOUTH, CHILD, ADULT, ADULT, YOUTH, SENIOR];
gender = [OTHER, FEMALE, OTHER, OTHER, MALE, OTHER, FEMALE, FEMALE, FEMALE, OTHER, FEMALE, OTHER, MALE, FEMALE, OTHER, MALE, OTHER, OTHER, MALE, MALE, MALE, OTHER, OTHER, OTHER];
health = [COMPROMISED, GOOD, GOOD, GOOD, POOR, POOR, POOR, POOR, COMPROMISED, GOOD, POOR, COMPROMISED, COMPROMISED, COMPROMISED, GOOD, GOOD, GOOD, POOR, GOOD, COMPROMISED, COMPROMISED, GOOD, COMPROMISED, COMPROMISED];
exposure = [HIGH, HIGH, HIGH, HIGH, HIGH, EXTREME, EXTREME, LOW, LOW, HIGH, AVERAGE, HIGH, EXTREME, EXTREME, EXTREME, LOW, HIGH, EXTREME, AVERAGE, EXTREME, AVERAGE, EXTREME, LOW, HIGH];
size = [7, 9, 6, 7, 5, 5, 9, 10, 6, 7, 9, 9, 5, 5, 6, 8, 10, 8, 5, 10, 5, 10, 8, 5];
minsize = 5;
age_group_min = [0, 1, 1, 1, 1, 0, 0];
age_group_max = [8, 18, 15, 15, 13, 17, 16];
max_people_diff = 84;
max_share_vaccines = 3;
health_information = {10, 19, 24};
exposure_information = {3, 11, 13, 17};